0 0 2 0
2 0 2 1
1 0 1 0
2 1 3 6
0 1 0 1
3 0 1 8
5 0 1 13
3 1 0 13
1 1 2 8
5 1 3 16
4 0 2 13
0 2 1 16
2 2 5 10
2 3 0 18
5 2 5 19
1 2 4 13
3 2 2 22
3 3 3 27
0 3 3 30
4 1 1 22
5 3 0 28
2 4 1 27
1 3 5 28
4 2 4 25
1 4 0 38
4 3 5 38
4 4 0 48
0 4 5 42
3 4 4 30
2 5 4 38
1 5 3 48
4 5 3 52
3 5 5 45
5 4 4 45
0 5 4 49
5 5 2 49

